(set-logic FO)
(declare-fun f (Term) Bool)
(declare-fun g (Term) Bool)
(declare-fun h (Term) Bool)
(declare-fun i (Term) Bool)
(declare-fun j (Term) Bool)
(set-info :status unsat)
(assert (exists ((x Term)) (and (f x) (not (g x)))))
(assert (forall ((x Term)) (=> (f x) (h x))))
(assert (forall ((x Term)) (=> (and (j x) (i x)) (f x))))
(assert (=> (exists ((x Term)) (and (h x) (not (g x)))) (forall ((x Term)) (=> (i x) (not (h x))))))
(assert (not (forall ((x Term)) (=> (j x) (not (i x))))))
(check-sat)
(exit)
